(set-logic QF_NRA)
(set-info :source |Benchmarks generated from hycomp (https://es-static.fbk.eu/tools/hycomp/). BMC instances of non-linear hybrid automata taken from: Alessandro Cimatti, Sergio Mover, Stefano Tonetta, A quantifier-free SMT encoding of non-linear hybrid automata, FMCAD 2012 and Alessandro Cimatti, Sergio Mover, Stefano Tonetta, Quantier-free encoding of invariants for Hybrid Systems, Formal Methods in System Design. This instance solves a BMC problem of depth 1 and uses the encoding obtained with quantifier elimination using redlog encoding. Contacts: Sergio Mover (mover@fbk.eu), Stefano Tonetta (tonettas@fbk.eu), Alessandro Cimatti (cimatti@fbk.eu).|)
(set-info :smt-lib-version 2.0)
(set-info :category "industrial")
(set-info :status unsat)
;; MathSAT API call trace
;; generated on Mon Mar 19 10:37:33 2012
(declare-fun b.delta__AT0 () Real)
(declare-fun b.counter.1__AT0 () Bool)
(declare-fun b.y__AT1 () Real)
(declare-fun b.EVENT.0__AT0 () Bool)
(declare-fun b.speed_y__AT0 () Real)
(declare-fun b.counter.3__AT0 () Bool)
(declare-fun b.event_is_timed__AT0 () Bool)
(declare-fun b.time__AT1 () Real)
(declare-fun b.x__AT1 () Real)
(declare-fun b.event_is_timed__AT1 () Bool)
(declare-fun b.counter.0__AT1 () Bool)
(declare-fun b.speed_loss__AT0 () Real)
(declare-fun b.counter.1__AT1 () Bool)
(declare-fun b.speed_x__AT0 () Real)
(declare-fun b.speed_x__AT1 () Real)
(declare-fun b.counter.2__AT1 () Bool)
(declare-fun b.time__AT0 () Real)
(declare-fun b.counter.2__AT0 () Bool)
(declare-fun b.counter.3__AT1 () Bool)
(declare-fun b.bool_atom__AT1 () Bool)
(declare-fun b.EVENT.1__AT0 () Bool)
(declare-fun b.x__AT0 () Real)
(declare-fun b.speed_y__AT1 () Real)
(declare-fun b.delta__AT1 () Real)
(declare-fun b.bool_atom__AT0 () Bool)
(declare-fun b.y__AT0 () Real)
(declare-fun b.EVENT.1__AT1 () Bool)
(declare-fun b.EVENT.0__AT1 () Bool)
(declare-fun b.counter.0__AT0 () Bool)
(assert (let ((.def_604 (* 10.0 b.speed_x__AT1)))
(let ((.def_766 (* b.x__AT1 .def_604)))
(let ((.def_605 (* b.speed_x__AT1 .def_604)))
(let ((.def_607 (* .def_605 b.delta__AT1)))
(let ((.def_767 (+ .def_607 .def_766)))
(let ((.def_768 (* (- 49.0) b.delta__AT1)))
(let ((.def_771 (+ .def_768 .def_767)))
(let ((.def_664 (* 5.0 b.speed_y__AT1)))
(let ((.def_772 (+ .def_664 .def_771)))
(let ((.def_896 (<= 0.0 .def_772)))
(let ((.def_897 (not .def_896)))
(let ((.def_620 (* 10.0 b.x__AT1)))
(let ((.def_621 (* b.x__AT1 .def_620)))
(let ((.def_616 (* 49.0 b.delta__AT1)))
(let ((.def_617 (* b.delta__AT1 .def_616)))
(let ((.def_618 (* (- 1.0) .def_617)))
(let ((.def_625 (+ .def_618 .def_621)))
(let ((.def_613 (* 10.0 b.speed_y__AT1)))
(let ((.def_614 (* b.delta__AT1 .def_613)))
(let ((.def_626 (+ .def_614 .def_625)))
(let ((.def_609 (* 20.0 b.speed_x__AT1)))
(let ((.def_610 (* b.delta__AT1 .def_609)))
(let ((.def_611 (* b.x__AT1 .def_610)))
(let ((.def_627 (+ .def_611 .def_626)))
(let ((.def_608 (* b.delta__AT1 .def_607)))
(let ((.def_628 (+ .def_608 .def_627)))
(let ((.def_623 (* 10.0 b.y__AT1)))
(let ((.def_629 (+ .def_623 .def_628)))
(let ((.def_775 (= .def_629 0.0 )))
(let ((.def_776 (not .def_775)))
(let ((.def_898 (or .def_776 .def_897)))
(let ((.def_818 (* 490.0 b.x__AT1)))
(let ((.def_819 (* b.x__AT1 .def_818)))
(let ((.def_814 (* 2401.0 b.delta__AT1)))
(let ((.def_815 (* b.delta__AT1 .def_814)))
(let ((.def_816 (* (- 1.0) .def_815)))
(let ((.def_823 (+ .def_816 .def_819)))
(let ((.def_811 (* 490.0 b.speed_y__AT1)))
(let ((.def_812 (* b.delta__AT1 .def_811)))
(let ((.def_824 (+ .def_812 .def_823)))
(let ((.def_796 (* 980.0 b.speed_x__AT1)))
(let ((.def_808 (* b.delta__AT1 .def_796)))
(let ((.def_809 (* b.x__AT1 .def_808)))
(let ((.def_825 (+ .def_809 .def_824)))
(let ((.def_778 (* 100.0 b.speed_x__AT1)))
(let ((.def_779 (* b.speed_x__AT1 .def_778)))
(let ((.def_805 (* b.y__AT1 .def_779)))
(let ((.def_806 (* (- 1.0) .def_805)))
(let ((.def_826 (+ .def_806 .def_825)))
(let ((.def_801 (* b.x__AT1 .def_779)))
(let ((.def_802 (* b.x__AT1 .def_801)))
(let ((.def_803 (* (- 1.0) .def_802)))
(let ((.def_827 (+ .def_803 .def_826)))
(let ((.def_797 (* b.speed_x__AT1 .def_796)))
(let ((.def_798 (* b.delta__AT1 .def_797)))
(let ((.def_799 (* b.delta__AT1 .def_798)))
(let ((.def_828 (+ .def_799 .def_827)))
(let ((.def_792 (* b.speed_y__AT1 .def_779)))
(let ((.def_793 (* b.delta__AT1 .def_792)))
(let ((.def_794 (* (- 1.0) .def_793)))
(let ((.def_829 (+ .def_794 .def_828)))
(let ((.def_785 (* 200.0 b.speed_x__AT1)))
(let ((.def_786 (* b.speed_x__AT1 .def_785)))
(let ((.def_787 (* b.speed_x__AT1 .def_786)))
(let ((.def_788 (* b.delta__AT1 .def_787)))
(let ((.def_789 (* b.x__AT1 .def_788)))
(let ((.def_790 (* (- 1.0) .def_789)))
(let ((.def_830 (+ .def_790 .def_829)))
(let ((.def_780 (* b.speed_x__AT1 .def_779)))
(let ((.def_781 (* b.speed_x__AT1 .def_780)))
(let ((.def_782 (* b.delta__AT1 .def_781)))
(let ((.def_783 (* b.delta__AT1 .def_782)))
(let ((.def_784 (* (- 1.0) .def_783)))
(let ((.def_831 (+ .def_784 .def_830)))
(let ((.def_821 (* 490.0 b.y__AT1)))
(let ((.def_832 (+ .def_821 .def_831)))
(let ((.def_892 (<= .def_832 0.0 )))
(let ((.def_841 (* 490.0 b.speed_x__AT1)))
(let ((.def_842 (* b.x__AT1 .def_841)))
(let ((.def_835 (* b.x__AT1 .def_780)))
(let ((.def_836 (* (- 1.0) .def_835)))
(let ((.def_848 (+ .def_836 .def_842)))
(let ((.def_849 (+ .def_798 .def_848)))
(let ((.def_834 (* (- 1.0) .def_782)))
(let ((.def_850 (+ .def_834 .def_849)))
(let ((.def_642 (* 50.0 b.speed_x__AT1)))
(let ((.def_643 (* b.speed_x__AT1 .def_642)))
(let ((.def_644 (* b.speed_y__AT1 .def_643)))
(let ((.def_838 (* (- 1.0) .def_644)))
(let ((.def_851 (+ .def_838 .def_850)))
(let ((.def_844 (* (- 2401.0) b.delta__AT1)))
(let ((.def_852 (+ .def_844 .def_851)))
(let ((.def_846 (* 245.0 b.speed_y__AT1)))
(let ((.def_853 (+ .def_846 .def_852)))
(let ((.def_854 (<= 0.0 .def_853)))
(let ((.def_893 (and .def_854 .def_892)))
(let ((.def_763 (<= .def_605 49.0 )))
(let ((.def_764 (not .def_763)))
(let ((.def_894 (or .def_764 .def_893)))
(let ((.def_833 (<= 0.0 .def_832)))
(let ((.def_855 (or .def_833 .def_854)))
(let ((.def_895 (and .def_855 .def_894)))
(let ((.def_899 (and .def_895 .def_898)))
(let ((.def_749 (* 98.0 b.x__AT1)))
(let ((.def_750 (* b.x__AT1 .def_749)))
(let ((.def_745 (* b.speed_y__AT1 .def_609)))
(let ((.def_746 (* b.x__AT1 .def_745)))
(let ((.def_754 (+ .def_746 .def_750)))
(let ((.def_634 (* b.speed_x__AT1 .def_609)))
(let ((.def_743 (* b.y__AT1 .def_634)))
(let ((.def_744 (* (- 1.0) .def_743)))
(let ((.def_755 (+ .def_744 .def_754)))
(let ((.def_665 (* b.speed_y__AT1 .def_664)))
(let ((.def_756 (+ .def_665 .def_755)))
(let ((.def_752 (* 98.0 b.y__AT1)))
(let ((.def_757 (+ .def_752 .def_756)))
(let ((.def_889 (= .def_757 0.0 )))
(let ((.def_890 (and .def_764 .def_889)))
(let ((.def_885 (<= 49.0 .def_605)))
(let ((.def_886 (not .def_885)))
(let ((.def_873 (* 49.0 b.x__AT1)))
(let ((.def_874 (* b.x__AT1 .def_873)))
(let ((.def_870 (* b.y__AT1 .def_605)))
(let ((.def_871 (* (- 1.0) .def_870)))
(let ((.def_878 (+ .def_871 .def_874)))
(let ((.def_867 (* b.x__AT1 .def_605)))
(let ((.def_868 (* b.x__AT1 .def_867)))
(let ((.def_869 (* (- 1.0) .def_868)))
(let ((.def_879 (+ .def_869 .def_878)))
(let ((.def_876 (* 49.0 b.y__AT1)))
(let ((.def_880 (+ .def_876 .def_879)))
(let ((.def_884 (<= 0.0 .def_880)))
(let ((.def_887 (and .def_884 .def_886)))
(let ((.def_881 (<= .def_880 0.0 )))
(let ((.def_657 (* 98.0 b.speed_x__AT1)))
(let ((.def_658 (* b.x__AT1 .def_657)))
(let ((.def_648 (* b.speed_y__AT1 .def_605)))
(let ((.def_859 (* (- 1.0) .def_648)))
(let ((.def_863 (+ .def_859 .def_658)))
(let ((.def_635 (* b.speed_x__AT1 .def_634)))
(let ((.def_636 (* b.x__AT1 .def_635)))
(let ((.def_858 (* (- 1.0) .def_636)))
(let ((.def_864 (+ .def_858 .def_863)))
(let ((.def_668 (* 49.0 b.speed_y__AT1)))
(let ((.def_865 (+ .def_668 .def_864)))
(let ((.def_866 (<= .def_865 0.0 )))
(let ((.def_882 (and .def_866 .def_881)))
(let ((.def_888 (or .def_882 .def_887)))
(let ((.def_891 (or .def_888 .def_890)))
(let ((.def_900 (or .def_891 .def_899)))
(let ((.def_773 (<= .def_772 0.0 )))
(let ((.def_774 (not .def_773)))
(let ((.def_777 (or .def_774 .def_776)))
(let ((.def_856 (and .def_777 .def_855)))
(let ((.def_761 (<= .def_757 0.0 )))
(let ((.def_762 (not .def_761)))
(let ((.def_765 (or .def_762 .def_764)))
(let ((.def_857 (or .def_765 .def_856)))
(let ((.def_883 (or .def_857 .def_882)))
(let ((.def_901 (and .def_883 .def_900)))
(let ((.def_758 (<= 0.0 .def_757)))
(let ((.def_759 (not .def_758)))
(let ((.def_684 (= .def_605 49.0 )))
(let ((.def_760 (or .def_684 .def_759)))
(let ((.def_902 (or .def_760 .def_901)))
(let ((.def_732 (* b.x__AT1 b.x__AT1)))
(let ((.def_730 (* b.speed_y__AT1 b.delta__AT1)))
(let ((.def_735 (+ .def_730 .def_732)))
(let ((.def_687 (* 2.0 b.speed_x__AT1)))
(let ((.def_728 (* b.delta__AT1 .def_687)))
(let ((.def_729 (* b.x__AT1 .def_728)))
(let ((.def_736 (+ .def_729 .def_735)))
(let ((.def_737 (+ b.y__AT1 .def_736)))
(let ((.def_738 (= .def_737 0.0 )))
(let ((.def_739 (not .def_738)))
(let ((.def_479 (* b.speed_y__AT1 b.speed_y__AT1)))
(let ((.def_717 (* .def_479 b.delta__AT1)))
(let ((.def_706 (* 4.0 b.speed_x__AT1)))
(let ((.def_711 (* b.speed_y__AT1 .def_706)))
(let ((.def_712 (* b.delta__AT1 .def_711)))
(let ((.def_713 (* b.x__AT1 .def_712)))
(let ((.def_721 (+ .def_713 .def_717)))
(let ((.def_707 (* b.speed_x__AT1 .def_706)))
(let ((.def_708 (* b.delta__AT1 .def_707)))
(let ((.def_709 (* b.x__AT1 .def_708)))
(let ((.def_710 (* b.x__AT1 .def_709)))
(let ((.def_722 (+ .def_710 .def_721)))
(let ((.def_696 (* b.y__AT1 b.speed_y__AT1)))
(let ((.def_723 (+ .def_696 .def_722)))
(let ((.def_693 (* b.x__AT1 b.speed_y__AT1)))
(let ((.def_694 (* b.x__AT1 .def_693)))
(let ((.def_724 (+ .def_694 .def_723)))
(let ((.def_688 (* b.x__AT1 .def_687)))
(let ((.def_691 (* b.y__AT1 .def_688)))
(let ((.def_725 (+ .def_691 .def_724)))
(let ((.def_689 (* b.x__AT1 .def_688)))
(let ((.def_690 (* b.x__AT1 .def_689)))
(let ((.def_726 (+ .def_690 .def_725)))
(let ((.def_727 (<= .def_726 0.0 )))
(let ((.def_740 (and .def_727 .def_739)))
(let ((.def_703 (+ b.speed_y__AT1 .def_688)))
(let ((.def_704 (= .def_703 0.0 )))
(let ((.def_698 (+ .def_694 .def_696)))
(let ((.def_699 (+ .def_691 .def_698)))
(let ((.def_700 (+ .def_690 .def_699)))
(let ((.def_701 (<= 0.0 .def_700)))
(let ((.def_685 (not .def_684)))
(let ((.def_672 (* b.y__AT1 .def_668)))
(let ((.def_669 (* b.x__AT1 .def_668)))
(let ((.def_670 (* b.x__AT1 .def_669)))
(let ((.def_674 (+ .def_670 .def_672)))
(let ((.def_666 (* b.speed_y__AT1 .def_665)))
(let ((.def_675 (+ .def_666 .def_674)))
(let ((.def_662 (* b.y__AT1 .def_658)))
(let ((.def_676 (+ .def_662 .def_675)))
(let ((.def_659 (* b.x__AT1 .def_658)))
(let ((.def_660 (* b.x__AT1 .def_659)))
(let ((.def_677 (+ .def_660 .def_676)))
(let ((.def_652 (* 30.0 b.speed_x__AT1)))
(let ((.def_653 (* b.speed_y__AT1 .def_652)))
(let ((.def_654 (* b.speed_y__AT1 .def_653)))
(let ((.def_655 (* b.x__AT1 .def_654)))
(let ((.def_678 (+ .def_655 .def_677)))
(let ((.def_649 (* b.y__AT1 .def_648)))
(let ((.def_650 (* (- 1.0) .def_649)))
(let ((.def_679 (+ .def_650 .def_678)))
(let ((.def_645 (* b.x__AT1 .def_644)))
(let ((.def_646 (* b.x__AT1 .def_645)))
(let ((.def_680 (+ .def_646 .def_679)))
(let ((.def_639 (* b.y__AT1 .def_636)))
(let ((.def_640 (* (- 1.0) .def_639)))
(let ((.def_681 (+ .def_640 .def_680)))
(let ((.def_637 (* b.x__AT1 .def_636)))
(let ((.def_638 (* b.x__AT1 .def_637)))
(let ((.def_682 (+ .def_638 .def_681)))
(let ((.def_683 (<= .def_682 0.0 )))
(let ((.def_686 (or .def_683 .def_685)))
(let ((.def_702 (or .def_686 .def_701)))
(let ((.def_705 (or .def_702 .def_704)))
(let ((.def_741 (or .def_705 .def_740)))
(let ((.def_631 (<= 0.0 b.delta__AT1)))
(let ((.def_632 (not .def_631)))
(let ((.def_630 (<= 0.0 .def_629)))
(let ((.def_633 (or .def_630 .def_632)))
(let ((.def_742 (and .def_633 .def_741)))
(let ((.def_903 (and .def_742 .def_902)))
(let ((.def_582 (not b.EVENT.0__AT1)))
(let ((.def_580 (not b.EVENT.1__AT1)))
(let ((.def_602 (and .def_580 .def_582)))
(let ((.def_603 (not .def_602)))
(let ((.def_904 (or .def_603 .def_903)))
(let ((.def_45 (not b.counter.0__AT0)))
(let ((.def_595 (or b.counter.1__AT0 .def_45)))
(let ((.def_596 (or b.counter.2__AT0 .def_595)))
(let ((.def_48 (not b.counter.2__AT0)))
(let ((.def_43 (not b.counter.1__AT0)))
(let ((.def_46 (and .def_43 .def_45)))
(let ((.def_594 (or .def_46 .def_48)))
(let ((.def_597 (and .def_594 .def_596)))
(let ((.def_598 (or b.counter.3__AT0 .def_597)))
(let ((.def_591 (or .def_46 b.counter.2__AT0)))
(let ((.def_590 (or .def_43 .def_48)))
(let ((.def_592 (and .def_590 .def_591)))
(let ((.def_51 (not b.counter.3__AT0)))
(let ((.def_593 (or .def_51 .def_592)))
(let ((.def_599 (and .def_593 .def_598)))
(let ((.def_554 (* (- 1.0) b.x__AT1)))
(let ((.def_585 (* b.x__AT1 .def_554)))
(let ((.def_586 (<= .def_585 b.y__AT1)))
(let ((.def_76 (<= b.speed_loss__AT0 (/ 1 2))))
(let ((.def_73 (<= (/ 1 10) b.speed_loss__AT0)))
(let ((.def_77 (and .def_73 .def_76)))
(let ((.def_587 (and .def_77 .def_586)))
(let ((.def_583 (or .def_580 .def_582)))
(let ((.def_9 (not b.counter.0__AT1)))
(let ((.def_6 (not b.counter.1__AT1)))
(let ((.def_573 (or .def_6 .def_9)))
(let ((.def_577 (or b.counter.3__AT1 .def_573)))
(let ((.def_574 (or b.counter.2__AT1 .def_573)))
(let ((.def_4 (not b.counter.2__AT1)))
(let ((.def_572 (or .def_4 .def_9)))
(let ((.def_575 (and .def_572 .def_574)))
(let ((.def_14 (not b.counter.3__AT1)))
(let ((.def_576 (or .def_14 .def_575)))
(let ((.def_578 (and .def_576 .def_577)))
(let ((.def_584 (and .def_578 .def_583)))
(let ((.def_588 (and .def_584 .def_587)))
(let ((.def_113 (<= 0.0 b.delta__AT0)))
(let ((.def_64 (not b.EVENT.0__AT0)))
(let ((.def_62 (not b.EVENT.1__AT0)))
(let ((.def_82 (and .def_62 .def_64)))
(let ((.def_83 (not .def_82)))
(let ((.def_568 (or .def_83 .def_113)))
(let ((.def_569 (or b.EVENT.1__AT0 .def_568)))
(let ((.def_441 (= b.bool_atom__AT0 b.bool_atom__AT1)))
(let ((.def_436 (= b.counter.0__AT1 b.counter.0__AT0)))
(let ((.def_434 (= b.counter.1__AT1 b.counter.1__AT0)))
(let ((.def_432 (= b.counter.2__AT1 b.counter.2__AT0)))
(let ((.def_431 (= b.counter.3__AT1 b.counter.3__AT0)))
(let ((.def_433 (and .def_431 .def_432)))
(let ((.def_435 (and .def_433 .def_434)))
(let ((.def_437 (and .def_435 .def_436)))
(let ((.def_564 (and .def_437 .def_441)))
(let ((.def_565 (or .def_83 .def_564)))
(let ((.def_566 (or b.EVENT.1__AT0 .def_565)))
(let ((.def_553 (* b.speed_x__AT0 b.delta__AT0)))
(let ((.def_557 (+ .def_554 .def_553)))
(let ((.def_558 (+ b.x__AT0 .def_557)))
(let ((.def_559 (= .def_558 0.0 )))
(let ((.def_539 (* b.delta__AT0 b.delta__AT0)))
(let ((.def_540 (* (- 49.0) .def_539)))
(let ((.def_544 (* (- 10.0) b.y__AT1)))
(let ((.def_547 (+ .def_544 .def_540)))
(let ((.def_218 (* b.speed_y__AT0 b.delta__AT0)))
(let ((.def_541 (* 10.0 .def_218)))
(let ((.def_548 (+ .def_541 .def_547)))
(let ((.def_105 (* 10.0 b.y__AT0)))
(let ((.def_549 (+ .def_105 .def_548)))
(let ((.def_550 (= .def_549 0.0 )))
(let ((.def_535 (* (- 5.0) b.speed_y__AT1)))
(let ((.def_257 (* (- 49.0) b.delta__AT0)))
(let ((.def_536 (+ .def_257 .def_535)))
(let ((.def_150 (* 5.0 b.speed_y__AT0)))
(let ((.def_537 (+ .def_150 .def_536)))
(let ((.def_538 (= .def_537 0.0 )))
(let ((.def_551 (and .def_538 .def_550)))
(let ((.def_426 (= b.speed_x__AT0 b.speed_x__AT1)))
(let ((.def_552 (and .def_426 .def_551)))
(let ((.def_560 (and .def_552 .def_559)))
(let ((.def_561 (or .def_83 .def_560)))
(let ((.def_423 (= b.y__AT0 b.y__AT1)))
(let ((.def_420 (= b.x__AT0 b.x__AT1)))
(let ((.def_528 (and .def_420 .def_423)))
(let ((.def_529 (and .def_426 .def_528)))
(let ((.def_429 (= b.speed_y__AT0 b.speed_y__AT1)))
(let ((.def_530 (and .def_429 .def_529)))
(let ((.def_525 (= b.delta__AT0 0.0 )))
(let ((.def_526 (and .def_82 .def_525)))
(let ((.def_527 (not .def_526)))
(let ((.def_531 (or .def_527 .def_530)))
(let ((.def_532 (or b.EVENT.1__AT0 .def_531)))
(let ((.def_517 (and .def_426 .def_429)))
(let ((.def_518 (and .def_437 .def_517)))
(let ((.def_519 (or b.bool_atom__AT0 .def_518)))
(let ((.def_493 (or .def_9 b.counter.0__AT0)))
(let ((.def_492 (or b.counter.0__AT1 .def_45)))
(let ((.def_494 (and .def_492 .def_493)))
(let ((.def_495 (and .def_6 .def_494)))
(let ((.def_496 (or b.counter.1__AT0 .def_495)))
(let ((.def_491 (or b.counter.1__AT1 .def_43)))
(let ((.def_497 (and .def_491 .def_496)))
(let ((.def_508 (and .def_4 .def_497)))
(let ((.def_509 (or b.counter.2__AT0 .def_508)))
(let ((.def_503 (and .def_6 .def_45)))
(let ((.def_504 (or b.counter.1__AT0 .def_503)))
(let ((.def_505 (and .def_491 .def_504)))
(let ((.def_506 (and b.counter.2__AT1 .def_505)))
(let ((.def_507 (or .def_48 .def_506)))
(let ((.def_510 (and .def_507 .def_509)))
(let ((.def_511 (and b.counter.3__AT1 .def_510)))
(let ((.def_512 (or b.counter.3__AT0 .def_511)))
(let ((.def_498 (and b.counter.2__AT1 .def_497)))
(let ((.def_499 (or b.counter.2__AT0 .def_498)))
(let ((.def_487 (or b.counter.1__AT1 b.counter.1__AT0)))
(let ((.def_485 (and .def_6 b.counter.0__AT1)))
(let ((.def_486 (or .def_43 .def_485)))
(let ((.def_488 (and .def_486 .def_487)))
(let ((.def_489 (and .def_4 .def_488)))
(let ((.def_490 (or .def_48 .def_489)))
(let ((.def_500 (and .def_490 .def_499)))
(let ((.def_501 (and .def_14 .def_500)))
(let ((.def_502 (or .def_51 .def_501)))
(let ((.def_513 (and .def_502 .def_512)))
(let ((.def_474 (* b.speed_x__AT0 b.speed_x__AT0)))
(let ((.def_204 (* b.speed_y__AT0 b.speed_y__AT0)))
(let ((.def_475 (+ .def_204 .def_474)))
(let ((.def_460 (* (- 1.0) b.speed_loss__AT0)))
(let ((.def_461 (+ 1.0 .def_460)))
(let ((.def_473 (* .def_461 .def_461)))
(let ((.def_476 (* .def_473 .def_475)))
(let ((.def_477 (* (- 1.0) .def_476)))
(let ((.def_481 (+ .def_477 .def_479)))
(let ((.def_472 (* b.speed_x__AT1 b.speed_x__AT1)))
(let ((.def_482 (+ .def_472 .def_481)))
(let ((.def_483 (= .def_482 0.0 )))
(let ((.def_465 (* b.speed_y__AT0 .def_461)))
(let ((.def_448 (* (- 2.0) b.x__AT0)))
(let ((.def_449 (* (- 1.0) .def_448)))
(let ((.def_462 (* .def_449 .def_461)))
(let ((.def_463 (* b.speed_x__AT0 .def_462)))
(let ((.def_468 (+ .def_463 .def_465)))
(let ((.def_457 (* (- 2.0) b.x__AT1)))
(let ((.def_458 (* (- 1.0) .def_457)))
(let ((.def_459 (* b.speed_x__AT1 .def_458)))
(let ((.def_469 (+ .def_459 .def_468)))
(let ((.def_470 (+ b.speed_y__AT1 .def_469)))
(let ((.def_471 (= .def_470 0.0 )))
(let ((.def_484 (and .def_471 .def_483)))
(let ((.def_514 (and .def_484 .def_513)))
(let ((.def_456 (not b.bool_atom__AT0)))
(let ((.def_515 (or .def_456 .def_514)))
(let ((.def_450 (* b.speed_x__AT0 .def_449)))
(let ((.def_451 (+ b.speed_y__AT0 .def_450)))
(let ((.def_452 (<= 0.0 .def_451)))
(let ((.def_453 (not .def_452)))
(let ((.def_68 (* (- 1.0) b.x__AT0)))
(let ((.def_69 (* b.x__AT0 .def_68)))
(let ((.def_446 (= b.y__AT0 .def_69)))
(let ((.def_454 (and .def_446 .def_453)))
(let ((.def_455 (= b.bool_atom__AT0 .def_454)))
(let ((.def_516 (and .def_455 .def_515)))
(let ((.def_520 (and .def_516 .def_519)))
(let ((.def_521 (and .def_420 .def_520)))
(let ((.def_522 (and .def_423 .def_521)))
(let ((.def_523 (or .def_82 .def_522)))
(let ((.def_524 (or b.EVENT.1__AT0 .def_523)))
(let ((.def_533 (and .def_524 .def_532)))
(let ((.def_562 (and .def_533 .def_561)))
(let ((.def_407 (= b.time__AT0 b.time__AT1)))
(let ((.def_421 (and .def_407 .def_420)))
(let ((.def_424 (and .def_421 .def_423)))
(let ((.def_427 (and .def_424 .def_426)))
(let ((.def_430 (and .def_427 .def_429)))
(let ((.def_438 (and .def_430 .def_437)))
(let ((.def_442 (and .def_438 .def_441)))
(let ((.def_443 (or .def_62 .def_442)))
(let ((.def_410 (* (- 1.0) b.time__AT1)))
(let ((.def_413 (+ b.delta__AT0 .def_410)))
(let ((.def_414 (+ b.time__AT0 .def_413)))
(let ((.def_415 (= .def_414 0.0 )))
(let ((.def_416 (or .def_83 .def_415)))
(let ((.def_417 (or b.EVENT.1__AT0 .def_416)))
(let ((.def_408 (or .def_82 .def_407)))
(let ((.def_409 (or b.EVENT.1__AT0 .def_408)))
(let ((.def_418 (and .def_409 .def_417)))
(let ((.def_444 (and .def_418 .def_443)))
(let ((.def_404 (= .def_83 b.event_is_timed__AT1)))
(let ((.def_402 (= b.event_is_timed__AT0 .def_82)))
(let ((.def_405 (and .def_402 .def_404)))
(let ((.def_445 (and .def_405 .def_444)))
(let ((.def_563 (and .def_445 .def_562)))
(let ((.def_567 (and .def_563 .def_566)))
(let ((.def_570 (and .def_567 .def_569)))
(let ((.def_571 (and .def_62 .def_570)))
(let ((.def_589 (and .def_571 .def_588)))
(let ((.def_600 (and .def_589 .def_599)))
(let ((.def_84 (* 10.0 b.speed_x__AT0)))
(let ((.def_254 (* b.x__AT0 .def_84)))
(let ((.def_85 (* b.speed_x__AT0 .def_84)))
(let ((.def_87 (* .def_85 b.delta__AT0)))
(let ((.def_255 (+ .def_87 .def_254)))
(let ((.def_260 (+ .def_257 .def_255)))
(let ((.def_261 (+ .def_150 .def_260)))
(let ((.def_392 (<= 0.0 .def_261)))
(let ((.def_393 (not .def_392)))
(let ((.def_102 (* 10.0 b.x__AT0)))
(let ((.def_103 (* b.x__AT0 .def_102)))
(let ((.def_98 (* 49.0 b.delta__AT0)))
(let ((.def_99 (* b.delta__AT0 .def_98)))
(let ((.def_100 (* (- 1.0) .def_99)))
(let ((.def_107 (+ .def_100 .def_103)))
(let ((.def_94 (* 10.0 b.speed_y__AT0)))
(let ((.def_95 (* b.delta__AT0 .def_94)))
(let ((.def_108 (+ .def_95 .def_107)))
(let ((.def_90 (* 20.0 b.speed_x__AT0)))
(let ((.def_91 (* b.delta__AT0 .def_90)))
(let ((.def_92 (* b.x__AT0 .def_91)))
(let ((.def_109 (+ .def_92 .def_108)))
(let ((.def_88 (* b.delta__AT0 .def_87)))
(let ((.def_110 (+ .def_88 .def_109)))
(let ((.def_111 (+ .def_105 .def_110)))
(let ((.def_264 (= .def_111 0.0 )))
(let ((.def_265 (not .def_264)))
(let ((.def_394 (or .def_265 .def_393)))
(let ((.def_312 (* 490.0 b.x__AT0)))
(let ((.def_313 (* b.x__AT0 .def_312)))
(let ((.def_308 (* 2401.0 b.delta__AT0)))
(let ((.def_309 (* b.delta__AT0 .def_308)))
(let ((.def_310 (* (- 1.0) .def_309)))
(let ((.def_317 (+ .def_310 .def_313)))
(let ((.def_304 (* 490.0 b.speed_y__AT0)))
(let ((.def_305 (* b.delta__AT0 .def_304)))
(let ((.def_318 (+ .def_305 .def_317)))
(let ((.def_288 (* 980.0 b.speed_x__AT0)))
(let ((.def_300 (* b.delta__AT0 .def_288)))
(let ((.def_301 (* b.x__AT0 .def_300)))
(let ((.def_319 (+ .def_301 .def_318)))
(let ((.def_268 (* 100.0 b.speed_x__AT0)))
(let ((.def_269 (* b.speed_x__AT0 .def_268)))
(let ((.def_297 (* b.y__AT0 .def_269)))
(let ((.def_298 (* (- 1.0) .def_297)))
(let ((.def_320 (+ .def_298 .def_319)))
(let ((.def_293 (* b.x__AT0 .def_269)))
(let ((.def_294 (* b.x__AT0 .def_293)))
(let ((.def_295 (* (- 1.0) .def_294)))
(let ((.def_321 (+ .def_295 .def_320)))
(let ((.def_289 (* b.speed_x__AT0 .def_288)))
(let ((.def_290 (* b.delta__AT0 .def_289)))
(let ((.def_291 (* b.delta__AT0 .def_290)))
(let ((.def_322 (+ .def_291 .def_321)))
(let ((.def_283 (* b.speed_y__AT0 .def_269)))
(let ((.def_284 (* b.delta__AT0 .def_283)))
(let ((.def_285 (* (- 1.0) .def_284)))
(let ((.def_323 (+ .def_285 .def_322)))
(let ((.def_276 (* 200.0 b.speed_x__AT0)))
(let ((.def_277 (* b.speed_x__AT0 .def_276)))
(let ((.def_278 (* b.speed_x__AT0 .def_277)))
(let ((.def_279 (* b.delta__AT0 .def_278)))
(let ((.def_280 (* b.x__AT0 .def_279)))
(let ((.def_281 (* (- 1.0) .def_280)))
(let ((.def_324 (+ .def_281 .def_323)))
(let ((.def_270 (* b.speed_x__AT0 .def_269)))
(let ((.def_271 (* b.speed_x__AT0 .def_270)))
(let ((.def_272 (* b.delta__AT0 .def_271)))
(let ((.def_273 (* b.delta__AT0 .def_272)))
(let ((.def_274 (* (- 1.0) .def_273)))
(let ((.def_325 (+ .def_274 .def_324)))
(let ((.def_315 (* 490.0 b.y__AT0)))
(let ((.def_326 (+ .def_315 .def_325)))
(let ((.def_388 (<= .def_326 0.0 )))
(let ((.def_335 (* 490.0 b.speed_x__AT0)))
(let ((.def_336 (* b.x__AT0 .def_335)))
(let ((.def_329 (* b.x__AT0 .def_270)))
(let ((.def_330 (* (- 1.0) .def_329)))
(let ((.def_344 (+ .def_330 .def_336)))
(let ((.def_345 (+ .def_290 .def_344)))
(let ((.def_328 (* (- 1.0) .def_272)))
(let ((.def_346 (+ .def_328 .def_345)))
(let ((.def_125 (* 50.0 b.speed_x__AT0)))
(let ((.def_126 (* b.speed_x__AT0 .def_125)))
(let ((.def_127 (* b.speed_y__AT0 .def_126)))
(let ((.def_332 (* (- 1.0) .def_127)))
(let ((.def_347 (+ .def_332 .def_346)))
(let ((.def_339 (* (- 2401.0) b.delta__AT0)))
(let ((.def_348 (+ .def_339 .def_347)))
(let ((.def_342 (* 245.0 b.speed_y__AT0)))
(let ((.def_349 (+ .def_342 .def_348)))
(let ((.def_350 (<= 0.0 .def_349)))
(let ((.def_389 (and .def_350 .def_388)))
(let ((.def_251 (<= .def_85 49.0 )))
(let ((.def_252 (not .def_251)))
(let ((.def_390 (or .def_252 .def_389)))
(let ((.def_327 (<= 0.0 .def_326)))
(let ((.def_351 (or .def_327 .def_350)))
(let ((.def_391 (and .def_351 .def_390)))
(let ((.def_395 (and .def_391 .def_394)))
(let ((.def_237 (* 98.0 b.x__AT0)))
(let ((.def_238 (* b.x__AT0 .def_237)))
(let ((.def_233 (* b.speed_y__AT0 .def_90)))
(let ((.def_234 (* b.x__AT0 .def_233)))
(let ((.def_242 (+ .def_234 .def_238)))
(let ((.def_116 (* b.speed_x__AT0 .def_90)))
(let ((.def_231 (* b.y__AT0 .def_116)))
(let ((.def_232 (* (- 1.0) .def_231)))
(let ((.def_243 (+ .def_232 .def_242)))
(let ((.def_151 (* b.speed_y__AT0 .def_150)))
(let ((.def_244 (+ .def_151 .def_243)))
(let ((.def_240 (* 98.0 b.y__AT0)))
(let ((.def_245 (+ .def_240 .def_244)))
(let ((.def_385 (= .def_245 0.0 )))
(let ((.def_386 (and .def_252 .def_385)))
(let ((.def_381 (<= 49.0 .def_85)))
(let ((.def_382 (not .def_381)))
(let ((.def_369 (* 49.0 b.x__AT0)))
(let ((.def_370 (* b.x__AT0 .def_369)))
(let ((.def_366 (* b.y__AT0 .def_85)))
(let ((.def_367 (* (- 1.0) .def_366)))
(let ((.def_374 (+ .def_367 .def_370)))
(let ((.def_363 (* b.x__AT0 .def_85)))
(let ((.def_364 (* b.x__AT0 .def_363)))
(let ((.def_365 (* (- 1.0) .def_364)))
(let ((.def_375 (+ .def_365 .def_374)))
(let ((.def_372 (* 49.0 b.y__AT0)))
(let ((.def_376 (+ .def_372 .def_375)))
(let ((.def_380 (<= 0.0 .def_376)))
(let ((.def_383 (and .def_380 .def_382)))
(let ((.def_377 (<= .def_376 0.0 )))
(let ((.def_142 (* 98.0 b.speed_x__AT0)))
(let ((.def_143 (* b.x__AT0 .def_142)))
(let ((.def_131 (* b.speed_y__AT0 .def_85)))
(let ((.def_355 (* (- 1.0) .def_131)))
(let ((.def_359 (+ .def_355 .def_143)))
(let ((.def_117 (* b.speed_x__AT0 .def_116)))
(let ((.def_118 (* b.x__AT0 .def_117)))
(let ((.def_354 (* (- 1.0) .def_118)))
(let ((.def_360 (+ .def_354 .def_359)))
(let ((.def_154 (* 49.0 b.speed_y__AT0)))
(let ((.def_361 (+ .def_154 .def_360)))
(let ((.def_362 (<= .def_361 0.0 )))
(let ((.def_378 (and .def_362 .def_377)))
(let ((.def_384 (or .def_378 .def_383)))
(let ((.def_387 (or .def_384 .def_386)))
(let ((.def_396 (or .def_387 .def_395)))
(let ((.def_262 (<= .def_261 0.0 )))
(let ((.def_263 (not .def_262)))
(let ((.def_266 (or .def_263 .def_265)))
(let ((.def_352 (and .def_266 .def_351)))
(let ((.def_249 (<= .def_245 0.0 )))
(let ((.def_250 (not .def_249)))
(let ((.def_253 (or .def_250 .def_252)))
(let ((.def_353 (or .def_253 .def_352)))
(let ((.def_379 (or .def_353 .def_378)))
(let ((.def_397 (and .def_379 .def_396)))
(let ((.def_246 (<= 0.0 .def_245)))
(let ((.def_247 (not .def_246)))
(let ((.def_170 (= .def_85 49.0 )))
(let ((.def_248 (or .def_170 .def_247)))
(let ((.def_398 (or .def_248 .def_397)))
(let ((.def_220 (* b.x__AT0 b.x__AT0)))
(let ((.def_223 (+ .def_218 .def_220)))
(let ((.def_173 (* 2.0 b.speed_x__AT0)))
(let ((.def_216 (* b.delta__AT0 .def_173)))
(let ((.def_217 (* b.x__AT0 .def_216)))
(let ((.def_224 (+ .def_217 .def_223)))
(let ((.def_225 (+ b.y__AT0 .def_224)))
(let ((.def_226 (= .def_225 0.0 )))
(let ((.def_227 (not .def_226)))
(let ((.def_205 (* b.delta__AT0 .def_204)))
(let ((.def_193 (* 4.0 b.speed_x__AT0)))
(let ((.def_198 (* b.speed_y__AT0 .def_193)))
(let ((.def_199 (* b.delta__AT0 .def_198)))
(let ((.def_200 (* b.x__AT0 .def_199)))
(let ((.def_209 (+ .def_200 .def_205)))
(let ((.def_194 (* b.speed_x__AT0 .def_193)))
(let ((.def_195 (* b.delta__AT0 .def_194)))
(let ((.def_196 (* b.x__AT0 .def_195)))
(let ((.def_197 (* b.x__AT0 .def_196)))
(let ((.def_210 (+ .def_197 .def_209)))
(let ((.def_182 (* b.y__AT0 b.speed_y__AT0)))
(let ((.def_211 (+ .def_182 .def_210)))
(let ((.def_179 (* b.x__AT0 b.speed_y__AT0)))
(let ((.def_180 (* b.x__AT0 .def_179)))
(let ((.def_212 (+ .def_180 .def_211)))
(let ((.def_174 (* b.x__AT0 .def_173)))
(let ((.def_177 (* b.y__AT0 .def_174)))
(let ((.def_213 (+ .def_177 .def_212)))
(let ((.def_175 (* b.x__AT0 .def_174)))
(let ((.def_176 (* b.x__AT0 .def_175)))
(let ((.def_214 (+ .def_176 .def_213)))
(let ((.def_215 (<= .def_214 0.0 )))
(let ((.def_228 (and .def_215 .def_227)))
(let ((.def_189 (+ b.speed_y__AT0 .def_174)))
(let ((.def_190 (= .def_189 0.0 )))
(let ((.def_184 (+ .def_180 .def_182)))
(let ((.def_185 (+ .def_177 .def_184)))
(let ((.def_186 (+ .def_176 .def_185)))
(let ((.def_187 (<= 0.0 .def_186)))
(let ((.def_171 (not .def_170)))
(let ((.def_158 (* b.y__AT0 .def_154)))
(let ((.def_155 (* b.x__AT0 .def_154)))
(let ((.def_156 (* b.x__AT0 .def_155)))
(let ((.def_160 (+ .def_156 .def_158)))
(let ((.def_152 (* b.speed_y__AT0 .def_151)))
(let ((.def_161 (+ .def_152 .def_160)))
(let ((.def_147 (* b.y__AT0 .def_143)))
(let ((.def_162 (+ .def_147 .def_161)))
(let ((.def_144 (* b.x__AT0 .def_143)))
(let ((.def_145 (* b.x__AT0 .def_144)))
(let ((.def_163 (+ .def_145 .def_162)))
(let ((.def_136 (* 30.0 b.speed_x__AT0)))
(let ((.def_137 (* b.speed_y__AT0 .def_136)))
(let ((.def_138 (* b.speed_y__AT0 .def_137)))
(let ((.def_139 (* b.x__AT0 .def_138)))
(let ((.def_164 (+ .def_139 .def_163)))
(let ((.def_132 (* b.y__AT0 .def_131)))
(let ((.def_133 (* (- 1.0) .def_132)))
(let ((.def_165 (+ .def_133 .def_164)))
(let ((.def_128 (* b.x__AT0 .def_127)))
(let ((.def_129 (* b.x__AT0 .def_128)))
(let ((.def_166 (+ .def_129 .def_165)))
(let ((.def_121 (* b.y__AT0 .def_118)))
(let ((.def_122 (* (- 1.0) .def_121)))
(let ((.def_167 (+ .def_122 .def_166)))
(let ((.def_119 (* b.x__AT0 .def_118)))
(let ((.def_120 (* b.x__AT0 .def_119)))
(let ((.def_168 (+ .def_120 .def_167)))
(let ((.def_169 (<= .def_168 0.0 )))
(let ((.def_172 (or .def_169 .def_171)))
(let ((.def_188 (or .def_172 .def_187)))
(let ((.def_191 (or .def_188 .def_190)))
(let ((.def_229 (or .def_191 .def_228)))
(let ((.def_114 (not .def_113)))
(let ((.def_112 (<= 0.0 .def_111)))
(let ((.def_115 (or .def_112 .def_114)))
(let ((.def_230 (and .def_115 .def_229)))
(let ((.def_399 (and .def_230 .def_398)))
(let ((.def_400 (or .def_83 .def_399)))
(let ((.def_70 (<= .def_69 b.y__AT0)))
(let ((.def_78 (and .def_70 .def_77)))
(let ((.def_65 (or .def_62 .def_64)))
(let ((.def_55 (or .def_43 .def_45)))
(let ((.def_59 (or b.counter.3__AT0 .def_55)))
(let ((.def_56 (or b.counter.2__AT0 .def_55)))
(let ((.def_54 (or .def_45 .def_48)))
(let ((.def_57 (and .def_54 .def_56)))
(let ((.def_58 (or .def_51 .def_57)))
(let ((.def_60 (and .def_58 .def_59)))
(let ((.def_66 (and .def_60 .def_65)))
(let ((.def_79 (and .def_66 .def_78)))
(let ((.def_49 (and .def_46 .def_48)))
(let ((.def_52 (and .def_49 .def_51)))
(let ((.def_40 (= b.speed_y__AT0 1.0 )))
(let ((.def_37 (= b.speed_x__AT0 1.0 )))
(let ((.def_33 (= b.y__AT0 10.0 )))
(let ((.def_29 (= b.x__AT0 0.0 )))
(let ((.def_25 (= b.time__AT0 0.0 )))
(let ((.def_27 (and .def_25 b.event_is_timed__AT0)))
(let ((.def_30 (and .def_27 .def_29)))
(let ((.def_34 (and .def_30 .def_33)))
(let ((.def_38 (and .def_34 .def_37)))
(let ((.def_41 (and .def_38 .def_40)))
(let ((.def_53 (and .def_41 .def_52)))
(let ((.def_80 (and .def_53 .def_79)))
(let ((.def_17 (or b.counter.1__AT1 .def_9)))
(let ((.def_18 (or b.counter.2__AT1 .def_17)))
(let ((.def_10 (and .def_6 .def_9)))
(let ((.def_16 (or .def_4 .def_10)))
(let ((.def_19 (and .def_16 .def_18)))
(let ((.def_20 (or b.counter.3__AT1 .def_19)))
(let ((.def_11 (or b.counter.2__AT1 .def_10)))
(let ((.def_7 (or .def_4 .def_6)))
(let ((.def_12 (and .def_7 .def_11)))
(let ((.def_15 (or .def_12 .def_14)))
(let ((.def_21 (and .def_15 .def_20)))
(let ((.def_22 (not .def_21)))
(let ((.def_81 (and .def_22 .def_80)))
(let ((.def_401 (and .def_81 .def_400)))
(let ((.def_601 (and .def_401 .def_600)))
(let ((.def_905 (and .def_601 .def_904)))
.def_905))))))))))))))))))))))))))))))))))))))))))))))))))))))))))))))))))))))))))))))))))))))))))))))))))))))))))))))))))))))))))))))))))))))))))))))))))))))))))))))))))))))))))))))))))))))))))))))))))))))))))))))))))))))))))))))))))))))))))))))))))))))))))))))))))))))))))))))))))))))))))))))))))))))))))))))))))))))))))))))))))))))))))))))))))))))))))))))))))))))))))))))))))))))))))))))))))))))))))))))))))))))))))))))))))))))))))))))))))))))))))))))))))))))))))))))))))))))))))))))))))))))))))))))))))))))))))))))))))))))))))))))))))))))))))))))))))))))))))))))))))))))))))))))))))))))))))))))))))))))))))))))))))))))))))))))))))))))))))))))))))))))))))))))))))))))))))))))))))))))))))))))))))))))))))))))))))))))))))))))))))))))))))
(check-sat)
(exit)
